p cnf 19 59
-6 -7 2 6 7 8 10 12 15 17 18 0
-15 1 11 15 0
-13 3 5 8 9 10 12 13 15 19 0
-13 -4 1 2 3 4 7 8 9 10 11 12 13 14 15 16 18 0
-5 5 6 8 9 15 16 17 18 0
-1 -16 -11 -15 -18 -10 -4 -8 1 4 8 9 10 11 13 14 15 16 18 19 0
-10 -19 -15 -1 -18 -12 -7 -2 -17 -5 1 2 5 6 7 9 10 12 14 15 17 18 19 0
-12 -15 -16 -1 -4 -11 -18 -13 -8 -14 -6 -7 -9 -17 -5 1 4 5 6 7 8 9 11 12 13 14 15 16 17 18 19 0
-13 -1 -14 -18 1 18 13 14 0
-16 -13 -3 -4 1 2 3 4 5 6 8 9 10 11 12 13 14 15 16 17 18 19 0
-18 -13 1 3 4 6 8 10 11 12 13 15 16 18 0
-6 2 3 4 5 6 8 11 12 13 15 16 17 19 0
-5 -7 1 5 7 10 14 16 0
-5 5 0
-9 -12 -14 -8 -2 -16 -17 -18 -19 -1 -13 -10 -11 -3 1 2 3 7 8 9 10 11 12 13 14 16 17 18 19 0
-17 -2 2 9 14 16 17 19 0
-14 -8 -16 8 16 14 0
 3 0
-15 -8 -11 -5 -18 -10 1 3 5 6 8 10 11 14 15 16 18 0
-18 -7 -9 4 5 7 8 9 13 16 18 0
-18 -5 -7 18 4 5 7 0
-11 -9 -12 -1 -15 -3 1 2 3 9 11 12 13 15 0
 1 2 3 4 5 6 7 8 9 10 11 12 13 14 15 16 17 18 19 0
 17 2 5 8 11 14 0
-15 -6 -9 -5 5 6 9 11 15 18 0
-12 -15 -4 4 12 15 0
-5 1 2 3 4 5 6 8 9 10 11 12 13 14 15 16 17 18 19 0
-7 3 4 7 10 11 13 16 18 0
-19 -10 1 3 4 5 8 10 11 12 15 16 18 19 0
-11 -9 -17 -4 1 2 3 4 5 7 9 10 11 12 13 14 15 17 19 0
-13 -14 -11 -16 1 3 11 12 13 14 15 16 17 0
-1 1 2 3 4 5 6 7 8 9 11 13 14 15 16 17 18 19 0
-10 -16 -17 -4 -5 -19 2 4 5 10 11 13 15 16 17 18 19 0
 2 12 14 0
-7 -18 -3 -1 -15 -10 -5 -17 -19 1 3 5 7 10 14 15 17 18 19 0
-1 -5 -6 -19 -4 -3 -17 -14 -13 -7 -9 -12 -8 -16 -18 1 3 4 5 6 7 8 9 12 13 14 16 17 18 19 0
-14 -9 -17 -15 3 7 9 13 14 15 16 17 19 0
-2 -18 2 4 5 7 8 14 16 18 19 0
-4 -13 -15 -14 -9 -16 -3 -2 -6 -19 1 2 3 4 6 7 8 9 12 13 14 15 16 18 19 0
-6 -1 -17 -14 -7 1 2 3 6 7 8 9 10 11 12 13 14 15 16 17 19 0
-4 -7 -1 -8 -3 1 3 4 7 8 0
-18 18 12 14 6 0
-9 -1 1 3 4 7 8 9 10 13 15 17 0
-2 -1 1 2 0
-6 -10 1 2 6 10 11 12 14 17 0
-11 -18 -3 -1 -2 1 2 3 4 6 7 8 10 11 12 13 14 15 16 17 18 19 0
-4 1 2 4 5 6 9 10 11 12 13 14 16 17 18 0
-2 -1 -11 -18 -3 -8 -17 1 2 3 5 8 9 10 11 13 14 15 17 18 0
-17 -13 -16 -1 -14 -3 -7 -5 -9 -10 -11 1 3 4 5 7 9 10 11 13 14 16 17 18 19 0
-9 -10 -13 -18 -4 -12 -19 -2 2 4 8 9 10 12 13 18 19 0
-4 -9 -16 -13 -3 -2 -1 -18 -17 -12 -14 -8 -5 -10 1 2 3 4 5 6 8 9 10 12 13 14 16 17 18 19 0
 16 8 14 0
-10 -4 -1 -3 -16 -15 -2 -12 -14 1 2 3 4 5 10 12 13 14 15 16 17 18 19 0
-4 -11 -17 -9 -3 -15 -13 -10 -8 1 3 4 7 8 9 10 11 13 14 15 17 18 0
-10 -5 -18 -9 -17 -2 -11 -16 -13 -14 -19 -6 -12 2 3 5 6 8 9 10 11 12 13 14 16 17 18 19 0
-10 -2 -18 -7 -8 -15 -19 -11 -5 -6 2 5 6 7 8 10 11 15 18 19 0
-10 -11 -7 -6 -16 -4 -5 -13 -9 -17 -15 -19 -18 4 5 6 7 9 10 11 13 15 16 17 18 19 0
-19 -12 -14 6 7 12 14 15 19 0
